benchmarks/bfuzz0/59806771302582082522997243381825426570.smt2
(set-logic QF_FP)
(declare-const x0 (_ FloatingPoint 11 53))
(declare-const x1 (_ FloatingPoint 11 53))
(declare-const x2 (_ FloatingPoint 11 53))
(declare-const x3 (_ FloatingPoint 11 53))
(declare-const x4 (_ FloatingPoint 11 53))
(assert (fp.geq (fp.neg x2) (fp.sub RNE x0 x1)))
(check-sat)
