db/data/59806771302582082522997243381825426570.z3.out
sat
-------------------
23.292859289
